data;

param num_top:=6;

#nodes and edges of the physical network
param n := 10;

set E := (1,2) (1,3) (1,7) (2,4) (2,7) (3,5) (4,8) (5,6) (5,7) (6,7) (6,9) (7,8) (7,9) (8,10) (9,10) ;

#nodes and edges of the virtual networks
set Nl[1] := 6 10 7 2 ;
set Nl[2] := 8 9 4 10 ;
set Nl[3] := 7 1 4 5 ;
set Nl[4] := 9 7 2 8 ;
set Nl[5] := 7 5 6 10 ;
set Nl[6] := 7 10 8 9 ;

set El[1] := (6,10) (7,10) (2,7) (2,6) (6,7) (2,10) ;
set El[2] := (8,9) (4,9) (4,10) (8,10) (9,10) (4,8) ;
set El[3] := (1,7) (1,4) (4,5) (5,7) (4,7) (1,5) ;
set El[4] := (7,9) (2,7) (2,8) (8,9) (2,9) (7,8) ;
set El[5] := (5,7) (5,6) (6,10) (7,10) (5,10) (6,7) ;
set El[6] := (7,10) (8,10) (8,9) (7,9) (9,10) (7,8) ;
